20	5
0	2	2	1
1	1	16
2	2	10	18
3	1	9
4	4	19	8	13	17
5	2	14	12
6	1	5
7	1	3
8	1	7
9	0
10	2	20	11
11	1	4
12	1	21
13	1	21
14	1	21
15	1	21
16	1	21
17	1	21
18	1	21
19	1	21
20	1	21
21	0
0	0	0	0	0	0	0
1	8	0	4	0	1	4
2	4	2	0	0	0	1
3	7	4	1	0	0	0
4	8	1	0	1	0	0
5	9	2	0	4	0	0
6	4	2	3	3	4	4
7	7	3	2	5	2	2
8	8	0	0	0	2	0
9	10	5	0	2	0	0
10	8	0	0	2	5	0
11	10	3	4	2	4	4
12	5	0	0	1	2	3
13	7	3	0	0	0	5
14	1	2	0	0	0	0
15	9	0	5	0	0	0
16	7	2	1	3	0	0
17	9	0	2	0	0	2
18	5	1	3	0	3	5
19	3	0	4	0	5	0
20	3	0	0	4	0	0
21	0	0	0	0	0	0
5	6	4	6	6
